<?xml version = "1.0" standalone="yes"?>
<!-- This file has been generated by DOcplex version 2.23.222  -->
<CPLEXSolution version="1.0">
 <header
   problemName="CVRP"
   objectiveValue="15751.6"
  />
 <variables>
  <variable name="x_0_3" index="2" value="1.00000"/>
  <variable name="x_0_4" index="3" value="1.00000"/>
  <variable name="x_0_6" index="5" value="1.00000"/>
  <variable name="x_0_7" index="6" value="1.00000"/>
  <variable name="x_0_9" index="8" value="1.00000"/>
  <variable name="x_0_12" index="11" value="1.00000"/>
  <variable name="x_0_13" index="12" value="1.00000"/>
  <variable name="x_0_16" index="15" value="1.00000"/>
  <variable name="x_0_17" index="16" value="1.00000"/>
  <variable name="x_0_19" index="18" value="1.00000"/>
  <variable name="x_0_20" index="19" value="1.00000"/>
  <variable name="x_0_21" index="20" value="1.00000"/>
  <variable name="x_0_22" index="21" value="1.00000"/>
  <variable name="x_0_23" index="22" value="1.00000"/>
  <variable name="x_0_24" index="23" value="1.00000"/>
  <variable name="x_0_26" index="25" value="1.00000"/>
  <variable name="x_1_5" index="30" value="1.00000"/>
  <variable name="x_2_0" index="52" value="1.00000"/>
  <variable name="x_3_11" index="88" value="1.00000"/>
  <variable name="x_4_0" index="104" value="1.00000"/>
  <variable name="x_5_2" index="132" value="1.00000"/>
  <variable name="x_6_0" index="156" value="1.00000"/>
  <variable name="x_7_0" index="182" value="1.00000"/>
  <variable name="x_8_1" index="209" value="1.00000"/>
  <variable name="x_9_10" index="243" value="1.00000"/>
  <variable name="x_10_0" index="260" value="1.00000"/>
  <variable name="x_11_0" index="286" value="1.00000"/>
  <variable name="x_12_8" index="320" value="1.00000"/>
  <variable name="x_13_14" index="351" value="1.00000"/>
  <variable name="x_14_18" index="381" value="1.00000"/>
  <variable name="x_15_0" index="390" value="1.00000"/>
  <variable name="x_16_0" index="416" value="1.00000"/>
  <variable name="x_17_0" index="442" value="1.00000"/>
  <variable name="x_18_0" index="468" value="1.00000"/>
  <variable name="x_19_15" index="509" value="1.00000"/>
  <variable name="x_20_0" index="520" value="1.00000"/>
  <variable name="x_21_0" index="546" value="1.00000"/>
  <variable name="x_22_0" index="572" value="1.00000"/>
  <variable name="x_23_0" index="598" value="1.00000"/>
  <variable name="x_24_25" index="648" value="1.00000"/>
  <variable name="x_25_0" index="650" value="1.00000"/>
  <variable name="x_26_0" index="676" value="1.00000"/>
  <variable name="u_1" index="702" value="49.00000"/>
  <variable name="u_2" index="703" value="73.00000"/>
  <variable name="u_3" index="704" value="19.00000"/>
  <variable name="u_4" index="705" value="74.00000"/>
  <variable name="u_5" index="706" value="62.00000"/>
  <variable name="u_6" index="707" value="77.00000"/>
  <variable name="u_7" index="708" value="73.00000"/>
  <variable name="u_8" index="709" value="3.00000"/>
  <variable name="u_9" index="710" value="44.00000"/>
  <variable name="u_10" index="711" value="70.00000"/>
  <variable name="u_11" index="712" value="66.00000"/>
  <variable name="u_12" index="713" value="2.00000"/>
  <variable name="u_13" index="714" value="22.00000"/>
  <variable name="u_14" index="715" value="59.00000"/>
  <variable name="u_15" index="716" value="75.00000"/>
  <variable name="u_16" index="717" value="77.00000"/>
  <variable name="u_17" index="718" value="77.00000"/>
  <variable name="u_18" index="719" value="74.00000"/>
  <variable name="u_19" index="720" value="52.00000"/>
  <variable name="u_20" index="721" value="77.00000"/>
  <variable name="u_21" index="722" value="65.00000"/>
  <variable name="u_22" index="723" value="77.00000"/>
  <variable name="u_23" index="724" value="77.00000"/>
  <variable name="u_24" index="725" value="40.00000"/>
  <variable name="u_25" index="726" value="77.00000"/>
  <variable name="u_26" index="727" value="43.00000"/>
 </variables>
</CPLEXSolution>
